;; sat

(declare-const x1 sl.list.loc)
(declare-const x2 sl.list.loc)
(declare-const x3 sl.list.loc)
(declare-const x4 sl.list.loc)
(declare-const x5 sl.list.loc)
(declare-const x6 sl.list.loc)
(declare-const x7 sl.list.loc)
(declare-const x8 sl.list.loc)
(declare-const x9 sl.list.loc)
(declare-const x10 sl.list.loc)
(declare-const x11 sl.list.loc)
(declare-const x12 sl.list.loc)
(declare-const x13 sl.list.loc)
(declare-const x14 sl.list.loc)
(declare-const x15 sl.list.loc)
(declare-const x16 sl.list.loc)
(declare-const x17 sl.list.loc)
(declare-const x18 sl.list.loc)

(assert (and (sl.sepcon (sl.list.eq sl.list.null sl.list.null)
 (sl.sepcon (sl.sepcon (sl.sepcon (sl.sepcon (sl.sepcon (sl.sepcon (sl.sepcon (sl.sepcon (sl.sepcon (sl.sepcon (sl.sepcon (sl.sepcon (sl.sepcon (sl.sepcon (sl.sepcon (sl.sepcon (sl.sepcon (sl.list.seg x4 x8)
 (sl.list.next x9 x13)
)
 (sl.list.next x11 x5)
)
 (sl.list.next x15 x2)
)
 (sl.list.seg x12 x9)
)
 (sl.list.seg x13 x5)
)
 (sl.list.next x14 x3)
)
 (sl.list.seg x5 x13)
)
 (sl.list.next x7 x17)
)
 (sl.list.next x6 x3)
)
 (sl.list.next x18 x7)
)
 (sl.list.next x10 x16)
)
 (sl.list.next x2 x11)
)
 (sl.list.next x16 x3)
)
 (sl.list.seg x17 x1)
)
 (sl.list.next x8 x17)
)
 (sl.list.next x1 x4)
)
 (sl.list.seg x3 x14)
)
)
 (not (sl.sepcon (sl.sepcon (sl.sepcon (sl.sepcon (sl.sepcon (sl.sepcon (sl.sepcon (sl.sepcon (sl.list.seg x8 x17)
 (sl.list.seg x14 x3)
)
 (sl.list.seg x15 x11)
)
 (sl.list.seg x6 x3)
)
 (sl.list.seg x10 x16)
)
 (sl.list.seg x16 x14)
)
 (sl.list.seg x18 x8)
)
 (sl.list.seg x12 x5)
)
 (sl.list.seg x11 x13)
)
))
)

